(set-info :source |printed by MathSAT|)
(declare-fun |.x{97}| () Int)
(declare-fun |.x{109}| () Int)
(declare-fun |.x{98}| () Int)
(declare-fun |.x{110}| () Int)
(declare-fun |.x{99}| () Int)
(declare-fun |.y{3}| () Int)
(declare-fun |.x{100}| () (Array Int Int))
(declare-fun |.x{111}| () (Array Int Int))
(declare-fun |.y{2}| () Int)
(declare-fun |.x{108}| () Int)
(declare-fun |.loc{3}| () Bool)
(declare-fun |.loc{5}| () Bool)
(declare-fun |.loc{4}| () Bool)
(declare-fun |.loc{6}| () Bool)
(declare-fun |.x{124}| () Int)
(declare-fun |.x{122}| () Int)
(declare-fun |.x{127}| () Int)
(declare-fun |.x{128}| () Int)
(declare-fun |.x{126}| () Int)
(declare-fun |.x{155}| () Int)
(declare-fun |.x{154}| () Int)
(declare-fun |.x{151}| () Int)
(declare-fun |.x{149}| () Int)
(declare-fun |.x{153}| () Int)
(define-fun .def_18 () Bool (! |.loc{3}| :next |.loc{5}|))
(define-fun .def_65 () Bool (not .def_18))
(define-fun .def_20 () Bool (! |.loc{4}| :next |.loc{6}|))
(define-fun .def_60 () Bool (not .def_20))
(define-fun .def_202 () Bool (! (and .def_60 .def_65) :init true))
(define-fun .def_14 () (Array Int Int) (! |.x{100}| :next |.x{111}|))
(define-fun .def_196 () Bool (= .def_14 |.x{111}|))
(define-fun .def_189 () Bool (= |.x{108}| 0))
(define-fun .def_190 () Bool (and .def_65 .def_189))
(define-fun .def_12 () Int (! |.x{99}| :next |.y{3}|))
(define-fun .def_10 () Int (! |.x{98}| :next |.x{110}|))
(define-fun .def_90 () Int (* 16777216 .def_10))
(define-fun .def_91 () Real (* (/ 1 16777216) (to_real .def_90)))
(define-fun .def_92 () Int (to_int .def_91))
(define-fun .def_94 () Real (* (/ 1 2) (to_real .def_92)))
(define-fun .def_95 () Int (to_int .def_94))
(define-fun .def_96 () Bool (<= .def_95 .def_12))
(define-fun .def_191 () Bool (and .def_96 .def_190))
(define-fun .def_185 () Int (select .def_14 |.x{128}|))
(define-fun .def_184 () Int (select .def_14 |.x{122}|))
(define-fun .def_186 () Bool (= .def_184 .def_185))
(define-fun .def_131 () Int (* (- 1) |.x{128}|))
(define-fun .def_179 () Int (+ |.x{127}| .def_131))
(define-fun .def_8 () Int (! |.x{97}| :next |.x{109}|))
(define-fun .def_180 () Int (+ .def_8 .def_179))
(define-fun .def_181 () Bool (= .def_180 0))
(define-fun .def_108 () Int (* (- 1) |.x{126}|))
(define-fun .def_176 () Int (+ |.x{127}| .def_108))
(define-fun .def_177 () Bool (= .def_176 (- 1)))
(define-fun .def_172 () Int (* (- 1) |.x{124}|))
(define-fun .def_173 () Int (+ .def_90 .def_172))
(define-fun .def_174 () Bool (= .def_173 0))
(define-fun .def_103 () Bool (<= .def_8 0))
(define-fun .def_43 () Bool (<= |.x{122}| 0))
(define-fun .def_44 () Bool (not .def_43))
(define-fun .def_169 () Bool (or .def_44 .def_103))
(define-fun .def_37 () Int (* (- 1) |.x{122}|))
(define-fun .def_16 () Int (! |.y{2}| :next |.x{108}|))
(define-fun .def_165 () Int (+ .def_16 .def_37))
(define-fun .def_166 () Int (+ .def_8 .def_165))
(define-fun .def_167 () Bool (= .def_166 0))
(define-fun .def_162 () Bool (<= .def_95 .def_16))
(define-fun .def_163 () Bool (not .def_162))
(define-fun .def_153 () Real (* (/ 1 16777216) (to_real |.x{124}|)))
(define-fun .def_154 () Int (to_int .def_153))
(define-fun .def_155 () Int (* (- 1) .def_154))
(define-fun .def_158 () Int (+ |.x{126}| .def_155))
(define-fun .def_159 () Int (+ .def_16 .def_158))
(define-fun .def_160 () Bool (= .def_159 0))
(define-fun .def_150 () Int (* (- 1) |.x{108}|))
(define-fun .def_151 () Int (+ .def_16 .def_150))
(define-fun .def_152 () Bool (= .def_151 (- 1)))
(define-fun .def_161 () Bool (and .def_152 .def_160))
(define-fun .def_164 () Bool (and .def_161 .def_163))
(define-fun .def_168 () Bool (and .def_164 .def_167))
(define-fun .def_170 () Bool (and .def_168 .def_169))
(define-fun .def_104 () Bool (not .def_103))
(define-fun .def_171 () Bool (and .def_104 .def_170))
(define-fun .def_175 () Bool (and .def_171 .def_174))
(define-fun .def_178 () Bool (and .def_175 .def_177))
(define-fun .def_182 () Bool (and .def_178 .def_181))
(define-fun .def_124 () Bool (<= |.x{128}| 0))
(define-fun .def_125 () Bool (not .def_124))
(define-fun .def_126 () Bool (or .def_103 .def_125))
(define-fun .def_183 () Bool (and .def_126 .def_182))
(define-fun .def_187 () Bool (and .def_183 .def_186))
(define-fun .def_188 () Bool (and .def_18 .def_187))
(define-fun .def_192 () Bool (or .def_188 .def_191))
(define-fun .def_47 () Bool (= .def_8 |.x{109}|))
(define-fun .def_146 () Bool (and |.loc{5}| .def_47))
(define-fun .def_53 () Bool (= .def_10 |.x{110}|))
(define-fun .def_147 () Bool (and .def_53 .def_146))
(define-fun .def_193 () Bool (and .def_147 .def_192))
(define-fun .def_194 () Bool (and .def_20 .def_193))
(define-fun .def_141 () Bool (= |.x{110}| .def_16))
(define-fun .def_139 () Bool (= |.x{109}| .def_10))
(define-fun .def_64 () Bool (= |.y{3}| 0))
(define-fun .def_28 () Int (* 16777216 .def_16))
(define-fun .def_30 () Real (* (/ 1 16777216) (to_real .def_28)))
(define-fun .def_31 () Int (to_int .def_30))
(define-fun .def_32 () Bool (<= .def_31 .def_12))
(define-fun .def_138 () Bool (and .def_32 .def_64))
(define-fun .def_140 () Bool (and .def_138 .def_139))
(define-fun .def_142 () Bool (and .def_140 .def_141))
(define-fun .def_129 () Bool (not |.loc{5}|))
(define-fun .def_143 () Bool (and .def_129 .def_142))
(define-fun .def_144 () Bool (and .def_18 .def_143))
(define-fun .def_145 () Bool (and .def_60 .def_144))
(define-fun .def_195 () Bool (or .def_145 .def_194))
(define-fun .def_197 () Bool (and .def_195 .def_196))
(define-fun .def_132 () Int (+ .def_12 .def_131))
(define-fun .def_133 () Int (+ .def_8 .def_132))
(define-fun .def_134 () Bool (= .def_133 0))
(define-fun .def_120 () Bool (<= |.x{127}| 0))
(define-fun .def_121 () Bool (not .def_120))
(define-fun .def_122 () Bool (or .def_103 .def_121))
(define-fun .def_112 () Int (* (- 1) |.x{127}|))
(define-fun .def_115 () Int (+ .def_112 |.x{126}|))
(define-fun .def_116 () Int (+ .def_8 .def_115))
(define-fun .def_117 () Bool (= .def_116 0))
(define-fun .def_109 () Int (+ |.x{124}| .def_108))
(define-fun .def_110 () Bool (= .def_109 1))
(define-fun .def_100 () Int (+ .def_90 .def_37))
(define-fun .def_101 () Bool (= .def_100 0))
(define-fun .def_97 () Bool (not .def_96))
(define-fun .def_83 () Real (* (/ 1 16777216) (to_real |.x{122}|)))
(define-fun .def_84 () Int (to_int .def_83))
(define-fun .def_85 () Int (* (- 1) .def_84))
(define-fun .def_86 () Int (+ |.x{124}| .def_85))
(define-fun .def_87 () Int (+ .def_12 .def_86))
(define-fun .def_88 () Bool (= .def_87 0))
(define-fun .def_78 () Int (select .def_14 |.x{127}|))
(define-fun .def_80 () (Array Int Int) (store .def_14 |.x{128}| .def_78))
(define-fun .def_81 () Bool (= |.x{111}| .def_80))
(define-fun .def_82 () Bool (and .def_65 .def_81))
(define-fun .def_89 () Bool (and .def_82 .def_88))
(define-fun .def_98 () Bool (and .def_89 .def_97))
(define-fun .def_102 () Bool (and .def_98 .def_101))
(define-fun .def_105 () Bool (and .def_102 .def_104))
(define-fun .def_111 () Bool (and .def_105 .def_110))
(define-fun .def_118 () Bool (and .def_111 .def_117))
(define-fun .def_119 () Bool (and .def_47 .def_118))
(define-fun .def_123 () Bool (and .def_119 .def_122))
(define-fun .def_127 () Bool (and .def_123 .def_126))
(define-fun .def_128 () Bool (and .def_53 .def_127))
(define-fun .def_130 () Bool (and .def_128 .def_129))
(define-fun .def_135 () Bool (and .def_130 .def_134))
(define-fun .def_55 () Int (* (- 1) |.y{3}|))
(define-fun .def_56 () Int (+ .def_12 .def_55))
(define-fun .def_57 () Bool (= .def_56 (- 1)))
(define-fun .def_136 () Bool (and .def_57 .def_135))
(define-fun .def_137 () Bool (and .def_20 .def_136))
(define-fun .def_198 () Bool (or .def_137 .def_197))
(define-fun .def_199 () Bool (and |.loc{6}| .def_198))
(define-fun .def_74 () Bool (<= |.x{110}| 0))
(define-fun .def_75 () Bool (not .def_74))
(define-fun .def_70 () Bool (<= |.x{108}| 0))
(define-fun .def_71 () Bool (not .def_70))
(define-fun .def_66 () Bool (and .def_64 .def_65))
(define-fun .def_67 () Bool (and |.loc{5}| .def_66))
(define-fun .def_68 () Bool (and .def_47 .def_67))
(define-fun .def_51 () Bool (not |.loc{6}|))
(define-fun .def_69 () Bool (and .def_51 .def_68))
(define-fun .def_72 () Bool (and .def_69 .def_71))
(define-fun .def_73 () Bool (and .def_60 .def_72))
(define-fun .def_76 () Bool (and .def_73 .def_75))
(define-fun .def_200 () Bool (or .def_76 .def_199))
(define-fun .def_62 () Bool (= .def_16 |.x{108}|))
(define-fun .def_42 () Bool (<= .def_10 0))
(define-fun .def_49 () Bool (not .def_42))
(define-fun .def_45 () Bool (or .def_42 .def_44))
(define-fun .def_38 () Int (+ .def_12 .def_37))
(define-fun .def_39 () Int (+ .def_10 .def_38))
(define-fun .def_40 () Bool (= .def_39 0))
(define-fun .def_33 () Bool (not .def_32))
(define-fun .def_24 () (Array Int Int) (store .def_14 |.x{122}| |.x{124}|))
(define-fun .def_25 () Bool (= |.x{111}| .def_24))
(define-fun .def_26 () Bool (and |.loc{5}| .def_25))
(define-fun .def_34 () Bool (and .def_26 .def_33))
(define-fun .def_41 () Bool (and .def_34 .def_40))
(define-fun .def_46 () Bool (and .def_41 .def_45))
(define-fun .def_48 () Bool (and .def_46 .def_47))
(define-fun .def_50 () Bool (and .def_48 .def_49))
(define-fun .def_52 () Bool (and .def_50 .def_51))
(define-fun .def_54 () Bool (and .def_52 .def_53))
(define-fun .def_58 () Bool (and .def_54 .def_57))
(define-fun .def_59 () Bool (and .def_18 .def_58))
(define-fun .def_61 () Bool (and .def_59 .def_60))
(define-fun .def_63 () Bool (and .def_61 .def_62))
(define-fun .def_201 () Bool (! (or .def_63 .def_200) :trans true))
(define-fun .def_232 () Int (! |.x{153}| :next |.xpv{3}|))
(define-fun .def_203 () Int (! |.x{155}| :next |.xpv{1}|))
(define-fun .def_208 () Int (! |.x{154}| :next |.xpv{4}|))
(define-fun .def_212 () Int (! |.x{151}| :next |.xpv{5}|))
(define-fun .def_216 () Int (! |.x{149}| :next |.xpv{2}|))
(define-fun .def_252 () Bool (and .def_18 .def_20))
(define-fun .def_248 () Int (select .def_14 .def_203))
(define-fun .def_247 () Int (select .def_14 .def_216))
(define-fun .def_249 () Bool (= .def_247 .def_248))
(define-fun .def_250 () Bool (not .def_249))
(define-fun .def_240 () Int (* (- 1) .def_232))
(define-fun .def_241 () Int (+ .def_208 .def_240))
(define-fun .def_242 () Bool (= .def_241 (- 1)))
(define-fun .def_228 () Real (* (/ 1 16777216) (to_real .def_212)))
(define-fun .def_229 () Int (to_int .def_228))
(define-fun .def_230 () Int (* (- 1) .def_229))
(define-fun .def_234 () Int (+ .def_230 .def_232))
(define-fun .def_235 () Int (+ .def_16 .def_234))
(define-fun .def_236 () Bool (= .def_235 0))
(define-fun .def_220 () Int (* (- 1) .def_216))
(define-fun .def_221 () Int (+ .def_16 .def_220))
(define-fun .def_222 () Int (+ .def_8 .def_221))
(define-fun .def_223 () Bool (= .def_222 0))
(define-fun .def_224 () Bool (and .def_163 .def_223))
(define-fun .def_217 () Bool (<= .def_216 0))
(define-fun .def_218 () Bool (not .def_217))
(define-fun .def_219 () Bool (or .def_103 .def_218))
(define-fun .def_225 () Bool (and .def_219 .def_224))
(define-fun .def_226 () Bool (and .def_104 .def_225))
(define-fun .def_213 () Int (* (- 1) .def_212))
(define-fun .def_214 () Int (+ .def_90 .def_213))
(define-fun .def_215 () Bool (= .def_214 0))
(define-fun .def_227 () Bool (and .def_215 .def_226))
(define-fun .def_237 () Bool (and .def_227 .def_236))
(define-fun .def_243 () Bool (and .def_237 .def_242))
(define-fun .def_207 () Int (* (- 1) .def_203))
(define-fun .def_209 () Int (+ .def_207 .def_208))
(define-fun .def_210 () Int (+ .def_8 .def_209))
(define-fun .def_211 () Bool (= .def_210 0))
(define-fun .def_244 () Bool (and .def_211 .def_243))
(define-fun .def_204 () Bool (<= .def_203 0))
(define-fun .def_205 () Bool (not .def_204))
(define-fun .def_206 () Bool (or .def_103 .def_205))
(define-fun .def_245 () Bool (and .def_206 .def_244))
(define-fun .def_246 () Bool (and .def_104 .def_245))
(define-fun .def_251 () Bool (and .def_246 .def_250))
(define-fun .def_253 () Bool (and .def_251 .def_252))
(define-fun .def_259 () Bool (! (not .def_253) :invar-property 0))
(assert true)
